projected/problems_b25_r0_d7_m100_s666/_DIMACS/b25_d7_r0_s666_056.cnf
p cnf 240 385 25
c p show 1 2 3 4 5 6 7 8 9 10 11 12 13 14 15 16 17 18 19 20 21 22 23 24 25
-176 -6 9 0
-177 16 4 0
-178 177 176 0
-179 -2 0
-179 -19 0
-180 18 0
-180 -22 0
-181 180 0
-181 179 0
-182 -18 22 0
-183 2 19 0
-184 183 0
-184 182 0
-185 184 181 0
-186 185 178 0
-187 182 183 0
-188 179 180 0
-189 188 0
-189 187 0
-190 6 0
-190 -9 0
-191 -16 0
-191 -4 0
-192 191 0
-192 190 0
-193 192 189 0
-194 193 0
-194 186 0
-195 -10 0
-195 -1 0
-196 13 0
-196 -12 0
-197 196 0
-197 195 0
-198 8 -3 0
-199 18 0
-199 7 0
-200 199 0
-200 198 0
-201 200 197 0
-202 201 194 0
-203 16 2 0
-204 1 0
-204 24 0
-205 204 203 0
-206 -1 -24 0
-207 -16 0
-207 -2 0
-208 207 206 0
-209 208 0
-209 205 0
-210 -7 0
-210 -2 0
-211 -3 0
-211 -23 0
-212 23 0
-212 3 0
-213 212 211 0
-214 213 210 0
-215 214 209 0
-216 19 -5 0
-217 -9 18 0
-218 217 0
-218 216 0
-219 24 -2 0
-220 6 12 0
-221 220 219 0
-222 -6 0
-222 -12 0
-223 -24 0
-223 2 0
-225 223 222 0
-226 225 0
-226 221 0
-227 226 218 0
-228 227 0
-228 215 0
-229 228 202 0
-230 206 0
-230 207 0
-231 203 0
-231 204 0
-232 231 230 0
-233 7 2 0
-234 3 23 0
-235 -23 -3 0
-236 235 0
-236 234 0
-237 236 0
-237 233 0
-238 237 0
-238 232 0
-239 -19 0
-239 5 0
-240 9 0
-240 -18 0
-26 240 239 0
-224 222 0
-224 223 0
-27 219 0
-27 220 0
-28 27 224 0
-29 28 0
-29 26 0
-30 29 238 0
-31 189 0
-31 192 0
-32 178 0
-32 185 0
-43 32 31 0
-33 10 1 0
-34 -13 12 0
-35 34 33 0
-36 -8 0
-36 3 0
-37 -18 -7 0
-38 37 36 0
-39 38 0
-39 35 0
-40 39 0
-40 43 0
-41 40 30 0
-42 41 0
-42 229 0
-44 -7 12 0
-45 -19 0
-45 -21 0
-46 45 0
-46 44 0
-47 -16 -11 0
-48 12 -20 0
-49 48 0
-49 47 0
-50 -12 0
-50 20 0
-51 16 0
-51 11 0
-52 51 0
-52 50 0
-53 52 49 0
-54 53 0
-54 46 0
-55 -20 0
-55 -14 0
-56 -14 -12 0
-57 56 0
-57 55 0
-58 9 -8 0
-59 -8 13 0
-60 -13 8 0
-61 60 0
-61 59 0
-62 61 0
-62 58 0
-63 62 57 0
-64 63 0
-64 54 0
-65 22 0
-65 -11 0
-66 -18 0
-66 -25 0
-67 66 0
-67 65 0
-68 -19 18 0
-69 -18 -15 0
-70 69 0
-70 68 0
-71 70 0
-71 67 0
-72 19 0
-72 -15 0
-73 15 0
-73 -19 0
-74 73 72 0
-75 19 -10 0
-76 10 -19 0
-77 76 0
-77 75 0
-78 77 0
-78 74 0
-79 -16 21 0
-80 8 16 0
-81 80 79 0
-82 81 78 0
-83 82 71 0
-84 83 64 0
-85 84 42 0
-86 16 -18 0
-87 17 23 0
-88 87 86 0
-89 -10 0
-89 -12 0
-90 -17 10 0
-91 -10 17 0
-92 91 0
-92 90 0
-93 92 89 0
-94 93 0
-94 88 0
-95 4 -20 0
-96 17 -4 0
-97 96 0
-97 95 0
-98 -23 -8 0
-99 -18 24 0
-100 99 0
-100 98 0
-101 100 97 0
-102 23 0
-102 8 0
-103 18 0
-103 -24 0
-104 103 102 0
-105 -4 0
-105 20 0
-106 -17 0
-106 4 0
-107 106 105 0
-108 107 104 0
-109 108 0
-109 101 0
-110 109 94 0
-111 5 0
-111 -25 0
-112 -5 0
-112 23 0
-113 -23 0
-113 5 0
-114 113 112 0
-115 114 111 0
-116 13 0
-116 -21 0
-117 18 0
-117 -5 0
-118 117 116 0
-119 118 115 0
-120 -13 21 0
-121 -18 5 0
-122 121 0
-122 120 0
-123 -5 25 0
-124 5 -23 0
-125 23 -5 0
-126 125 0
-126 124 0
-127 126 0
-127 123 0
-128 127 122 0
-129 128 0
-129 119 0
-130 11 24 0
-131 16 0
-131 -4 0
-132 131 130 0
-133 5 -6 0
-134 23 0
-134 25 0
-135 134 133 0
-136 135 132 0
-137 136 129 0
-138 137 110 0
-139 -15 0
-139 -16 0
-140 23 -15 0
-141 140 139 0
-142 4 0
-142 21 0
-143 -17 0
-143 -16 0
-144 143 0
-144 142 0
-145 144 141 0
-146 22 0
-146 -13 0
-147 -17 -5 0
-148 147 0
-148 146 0
-149 -10 0
-149 -16 0
-150 -14 0
-150 -24 0
-151 150 149 0
-152 151 0
-152 148 0
-153 152 145 0
-154 -2 0
-154 8 0
-155 -4 0
-155 7 0
-156 155 0
-156 154 0
-157 -15 -12 0
-158 -11 0
-159 158 0
-159 157 0
-160 11 0
-161 15 0
-161 12 0
-162 161 0
-162 160 0
-163 162 159 0
-164 163 156 0
-165 5 0
-165 -18 0
-166 117 165 0
-167 -21 13 0
-168 167 166 0
-169 -13 0
-169 -25 0
-170 5 15 0
-171 170 169 0
-172 171 0
-172 168 0
-173 172 0
-173 164 0
-174 173 153 0
-175 174 138 0
175 0
85 0
-206 -204 0
-207 -203 0
-203 -207 0
-209 -232 0
-210 -233 0
-233 -210 0
-236 -213 0
-237 -214 0
-214 -237 0
-215 -238 0
-238 -215 0
-216 -239 0
-240 -217 0
-217 -240 0
-218 -26 0
-222 -220 0
-219 -223 0
-226 -28 0
-227 -29 0
-29 -227 0
-30 -228 0
-182 -180 0
-180 -182 0
-183 -179 0
-189 -185 0
-190 -176 0
-176 -190 0
-191 -177 0
-177 -191 0
-178 -192 0
-194 -43 0
-195 -33 0
-33 -195 0
-34 -196 0
-35 -197 0
-197 -35 0
-36 -198 0
-37 -199 0
-38 -200 0
-200 -38 0
-201 -39 0
-202 -40 0
-48 -50 0
-47 -51 0
-51 -47 0
-98 -102 0
-102 -98 0
-103 -99 0
-104 -100 0
-105 -95 0
-95 -105 0
-106 -96 0
-96 -106 0
-97 -107 0
-116 -120 0
-120 -116 0
-121 -117 0
-122 -118 0
-123 -111 0
-111 -123 0
-126 -114 0
-114 -126 0
-115 -127 0
-158 -160 0
-157 -161 0
-161 -157 0
