projected/problems_b25_r0_d7_m100_s666/b25_d7_r0_s666_056.smt2
(set-logic QF_UF)
(declare-fun A0 () Bool)
(declare-fun A1 () Bool)
(declare-fun A2 () Bool)
(declare-fun A3 () Bool)
(declare-fun A4 () Bool)
(declare-fun A5 () Bool)
(declare-fun A6 () Bool)
(declare-fun A7 () Bool)
(declare-fun A8 () Bool)
(declare-fun A9 () Bool)
(declare-fun A10 () Bool)
(declare-fun A11 () Bool)
(declare-fun A12 () Bool)
(declare-fun A13 () Bool)
(declare-fun A14 () Bool)
(declare-fun A15 () Bool)
(declare-fun A16 () Bool)
(declare-fun A17 () Bool)
(declare-fun A18 () Bool)
(declare-fun A19 () Bool)
(declare-fun A20 () Bool)
(declare-fun A21 () Bool)
(declare-fun A22 () Bool)
(declare-fun A23 () Bool)
(declare-fun A24 () Bool)
(assert (let ((.def_0 (not A23))) (let ((.def_1 (not A0))) (let ((.def_2 (or .def_1 .def_0))) (let ((.def_3 (not A1))) (let ((.def_4 (not A15))) (let ((.def_5 (and .def_4 .def_3))) (let ((.def_6 (not .def_5))) (let ((.def_7 (= .def_6 .def_2))) (let ((.def_8 (not A6))) (let ((.def_9 (and .def_8 .def_3))) (let ((.def_10 (not .def_9))) (let ((.def_11 (not A2))) (let ((.def_12 (= A22 .def_11))) (let ((.def_13 (and .def_12 .def_10))) (let ((.def_14 (not .def_13))) (let ((.def_15 (or .def_14 .def_7))) (let ((.def_16 (not .def_15))) (let ((.def_17 (not A4))) (let ((.def_18 (or A18 .def_17))) (let ((.def_19 (not A17))) (let ((.def_20 (and A8 .def_19))) (let ((.def_21 (not .def_20))) (let ((.def_22 (and .def_21 .def_18))) (let ((.def_23 (not A11))) (let ((.def_24 (not A5))) (let ((.def_25 (and .def_24 .def_23))) (let ((.def_26 (or A23 .def_3))) (let ((.def_27 (= .def_26 .def_25))) (let ((.def_28 (or .def_27 .def_22))) (let ((.def_29 (not .def_28))) (let ((.def_30 (or .def_29 .def_16))) (let ((.def_31 (or .def_19 A21))) (let ((.def_32 (not .def_31))) (let ((.def_33 (or A1 A18))) (let ((.def_34 (= .def_33 .def_32))) (let ((.def_35 (not A8))) (let ((.def_36 (and A5 .def_35))) (let ((.def_37 (not .def_36))) (let ((.def_38 (not A3))) (let ((.def_39 (and .def_4 .def_38))) (let ((.def_40 (not .def_39))) (let ((.def_41 (or .def_40 .def_37))) (let ((.def_42 (= .def_41 .def_34))) (let ((.def_43 (not A9))) (let ((.def_44 (and .def_43 .def_1))) (let ((.def_45 (not .def_44))) (let ((.def_46 (not A12))) (let ((.def_47 (or .def_46 A11))) (let ((.def_48 (or .def_47 .def_45))) (let ((.def_49 (not .def_48))) (let ((.def_50 (not A7))) (let ((.def_51 (and .def_50 A2))) (let ((.def_52 (or .def_19 .def_8))) (let ((.def_53 (or .def_52 .def_51))) (let ((.def_54 (not .def_53))) (let ((.def_55 (or .def_54 .def_49))) (let ((.def_56 (or .def_55 .def_42))) (let ((.def_57 (= .def_56 .def_30))) (let ((.def_58 (not .def_57))) (let ((.def_59 (and A6 .def_23))) (let ((.def_60 (not A20))) (let ((.def_61 (not A18))) (let ((.def_62 (and .def_61 .def_60))) (let ((.def_63 (not .def_62))) (let ((.def_64 (or .def_63 .def_59))) (let ((.def_65 (not .def_64))) (let ((.def_66 (not A19))) (let ((.def_67 (or A11 .def_66))) (let ((.def_68 (not A10))) (let ((.def_69 (or .def_4 .def_68))) (let ((.def_70 (not .def_69))) (let ((.def_71 (= .def_70 .def_67))) (let ((.def_72 (not .def_71))) (let ((.def_73 (and .def_72 .def_65))) (let ((.def_74 (not .def_73))) (let ((.def_75 (not A13))) (let ((.def_76 (and .def_66 .def_75))) (let ((.def_77 (not .def_76))) (let ((.def_78 (or .def_75 .def_23))) (let ((.def_79 (not .def_78))) (let ((.def_80 (or .def_79 .def_77))) (let ((.def_81 (and .def_35 A7))) (let ((.def_82 (not .def_81))) (let ((.def_83 (= A12 A7))) (let ((.def_84 (and .def_83 .def_82))) (let ((.def_85 (not .def_84))) (let ((.def_86 (and .def_85 .def_80))) (let ((.def_87 (or .def_86 .def_74))) (let ((.def_88 (not A21))) (let ((.def_89 (or .def_88 A10))) (let ((.def_90 (not .def_89))) (let ((.def_91 (not A24))) (let ((.def_92 (and .def_19 .def_91))) (let ((.def_93 (and .def_92 .def_90))) (let ((.def_94 (and A18 .def_19))) (let ((.def_95 (not A14))) (let ((.def_96 (or .def_19 .def_95))) (let ((.def_97 (not .def_96))) (let ((.def_98 (or .def_97 .def_94))) (let ((.def_99 (not .def_98))) (let ((.def_100 (and .def_99 .def_93))) (let ((.def_101 (not .def_100))) (let ((.def_102 (= A14 A18))) (let ((.def_103 (not .def_102))) (let ((.def_104 (= .def_43 .def_61))) (let ((.def_105 (and .def_104 .def_103))) (let ((.def_106 (and A15 .def_60))) (let ((.def_107 (and .def_50 .def_4))) (let ((.def_108 (and .def_107 .def_106))) (let ((.def_109 (not .def_108))) (let ((.def_110 (or .def_109 .def_105))) (let ((.def_111 (not .def_110))) (let ((.def_112 (and .def_111 .def_101))) (let ((.def_113 (and .def_112 .def_87))) (let ((.def_114 (and .def_113 .def_58))) (let ((.def_115 (or A15 .def_19))) (let ((.def_116 (not .def_115))) (let ((.def_117 (not A22))) (let ((.def_118 (not A16))) (let ((.def_119 (and .def_118 .def_117))) (let ((.def_120 (and .def_119 .def_116))) (let ((.def_121 (not .def_120))) (let ((.def_122 (or A9 A11))) (let ((.def_123 (not .def_122))) (let ((.def_124 (= A9 A16))) (let ((.def_125 (or .def_124 .def_123))) (let ((.def_126 (and .def_125 .def_121))) (let ((.def_127 (not .def_126))) (let ((.def_128 (or .def_117 .def_50))) (let ((.def_129 (not .def_128))) (let ((.def_130 (and A17 .def_0))) (let ((.def_131 (or .def_130 .def_129))) (let ((.def_132 (and .def_38 A19))) (let ((.def_133 (not .def_132))) (let ((.def_134 (and .def_118 A3))) (let ((.def_135 (not .def_134))) (let ((.def_136 (and .def_135 .def_133))) (let ((.def_137 (= .def_136 .def_131))) (let ((.def_138 (not .def_137))) (let ((.def_139 (and .def_138 .def_127))) (let ((.def_140 (and A12 .def_60))) (let ((.def_141 (not .def_140))) (let ((.def_142 (or .def_19 A4))) (let ((.def_143 (and .def_142 .def_141))) (let ((.def_144 (or .def_17 A24))) (let ((.def_145 (not .def_144))) (let ((.def_146 (= .def_117 .def_17))) (let ((.def_147 (not .def_146))) (let ((.def_148 (or .def_147 .def_145))) (let ((.def_149 (= .def_148 .def_143))) (let ((.def_150 (not .def_149))) (let ((.def_151 (or A10 A23))) (let ((.def_152 (not .def_151))) (let ((.def_153 (or .def_4 A3))) (let ((.def_154 (and .def_153 .def_152))) (let ((.def_155 (and .def_17 A5))) (let ((.def_156 (and A22 A24))) (let ((.def_157 (not .def_156))) (let ((.def_158 (and .def_157 .def_155))) (let ((.def_159 (and .def_158 .def_154))) (let ((.def_160 (and .def_159 .def_150))) (let ((.def_161 (and .def_160 .def_139))) (let ((.def_162 (or A14 A15))) (let ((.def_163 (not .def_162))) (let ((.def_164 (or A22 .def_95))) (let ((.def_165 (or .def_164 .def_163))) (let ((.def_166 (not .def_165))) (let ((.def_167 (and A3 A20))) (let ((.def_168 (or A16 A15))) (let ((.def_169 (not .def_168))) (let ((.def_170 (and .def_169 .def_167))) (let ((.def_171 (not .def_170))) (let ((.def_172 (and .def_171 .def_166))) (let ((.def_173 (and A21 .def_46))) (let ((.def_174 (and A16 A4))) (let ((.def_175 (not .def_174))) (let ((.def_176 (and .def_175 .def_173))) (let ((.def_177 (and .def_43 .def_4))) (let ((.def_178 (not .def_177))) (let ((.def_179 (and .def_75 .def_0))) (let ((.def_180 (not .def_179))) (let ((.def_181 (and .def_180 .def_178))) (let ((.def_182 (not .def_181))) (let ((.def_183 (and .def_182 .def_176))) (let ((.def_184 (not .def_183))) (let ((.def_185 (and .def_184 .def_172))) (let ((.def_186 (or A1 .def_50))) (let ((.def_187 (or A3 .def_8))) (let ((.def_188 (or .def_187 .def_186))) (let ((.def_189 (and .def_68 .def_68))) (let ((.def_190 (or .def_95 .def_23))) (let ((.def_191 (not .def_190))) (let ((.def_192 (= .def_191 .def_189))) (let ((.def_193 (and .def_192 .def_188))) (let ((.def_194 (= A17 A4))) (let ((.def_195 (not .def_194))) (let ((.def_196 (or .def_60 A12))) (let ((.def_197 (or .def_196 .def_195))) (let ((.def_198 (and .def_46 .def_91))) (let ((.def_199 (or A4 A14))) (let ((.def_200 (or .def_199 .def_198))) (let ((.def_201 (and .def_200 .def_197))) (let ((.def_202 (not .def_201))) (let ((.def_203 (or .def_202 .def_193))) (let ((.def_204 (and .def_203 .def_185))) (let ((.def_205 (and .def_204 .def_161))) (let ((.def_206 (or .def_205 .def_114))) (let ((.def_207 (not .def_206))) .def_207)))))))))))))))))))))))))))))))))))))))))))))))))))))))))))))))))))))))))))))))))))))))))))))))))))))))))))))))))))))))))))))))))))))))))))))))))))))))))))))))))))))))))))))))))))))))))))))))))))))))))))))))))
(check-sat)
